language Essence 1.3

letting network be mset({}, {1, 2, 3, 4, 5}, {1, 2, 3, 4, 6}, {1, 2, 3, 7, 9}, {4, 5, 6, 7, 8}, {9, 10})
$ Visualisation for network
$ 
$  1  2  3  4  5
$  1  2  3  4  6
$  1  2  3  7  9
$  4  5  6  7  8
$  9 10

